20	5
0	5	1	5	4	2	3
1	2	16	15
2	3	11	9	20
3	3	11	9	10
4	2	6	18
5	1	21
6	0
7	1	16
8	4	12	13	19	10
9	1	7
10	1	7
11	1	13
12	1	21
13	1	21
14	1	21
15	1	21
16	1	21
17	1	21
18	1	21
19	1	21
20	1	21
21	0
0	0	0	0	0	0	0
1	6	0	1	0	0	0
2	10	0	3	0	3	0
3	5	5	1	0	0	3
4	5	5	2	2	3	5
5	6	5	0	5	0	2
6	5	4	1	2	2	5
7	7	2	4	5	3	2
8	3	2	5	0	4	0
9	9	5	2	2	4	2
10	2	3	0	4	0	5
11	5	2	4	2	3	5
12	3	0	1	0	4	5
13	2	2	5	0	0	5
14	6	0	0	0	2	3
15	7	1	4	0	2	5
16	7	3	3	4	0	5
17	1	3	5	5	3	2
18	6	3	1	4	5	3
19	10	3	3	1	4	3
20	4	4	4	0	2	4
21	0	0	0	0	0	0
13	10	9	11	14
